benchmarks/VRPTW/TSPTW/solution/n60w40.005.txt.solution
1 32 50 13 12 36 18 56 39 21 34 25 47 10 5 3 52 6 60 29 46 42 2 35 8 31 4 11 14 20 37 7 51 17 40 22 44 15 30 41 26 49 58 27 38 9 54 24 55 53 59 45 16 43 19 23 48 33 61 28 57 
539
